param n := 4;
param m := 4;

param	C :=
		1	50
		2	20
		3	30
		4	80;
param	A:	1	2	3	4:=
		1	400	200	150	500
		2	3	2	0	0
		3	2	2	4	4
		4	2	4	1	5;
param	B :=
		1	500
		2	7
		3	10
		4	8;					